9 9 9
9
1   2 1   4 1   9 0   2 1
2   3 0   7 0   3 1   1 1
3   3 0   7 1   6 0   1 1
4   5 1   2 0   3 0   1 1
5   5 0   2 1   6 0   1 1
6   6 1   3 1   3 0   1 1
7   6 0   3 1   6 0   1 1
8   4 0   6 1   3 0   1 1
9   4 0   6 1   6 1   1 1

